(set-logic QF_LIA)
(set-info :ran/ran13.smt2)
(set-info :smt-lib-version 2.0)
(declare-fun x0 () Int)
(declare-fun x1 () Int)
(declare-fun x2 () Int)
(declare-fun x3 () Int)
(declare-fun x4 () Int)
(declare-fun x5 () Int)
(declare-fun x6 () Int)
(declare-fun x7 () Int)
(declare-fun x8 () Int)
(declare-fun x9 () Int)
(declare-fun x10 () Int)
(declare-fun x11 () Int)
(declare-fun x12 () Int)
(define-fun ie0 () Bool (<= (+ (* 92 x4) (* 61 x8) (* 50 x4) ) (- 70)))
(define-fun ie1 () Bool (<= (+ (* (- 70) x12) (* 56 x7) (* 46 x2) (* (- 85) x12) ) (- 38)))
(define-fun ie2 () Bool (<= (+ (* (- 20) x10) (* (- 76) x10) ) (- 49)))
(define-fun ie3 () Bool (<= (+ (* 43 x4) (* (- 91) x5) (* 44 x12) (* 23 x2) ) 58))
(define-fun ie4 () Bool (<= (+ (* (- 68) x4) (* (- 51) x11) (* 8 x10) ) (- 100)))
(define-fun ie5 () Bool (<= (+ (* (- 48) x5) (* (- 37) x0) (* (- 35) x4) ) 50))
(define-fun ie6 () Bool (<= (+ (* 63 x8) (* (- 73) x3) (* 59 x7) ) (- 43)))
(define-fun ie7 () Bool (<= (+ (* 65 x0) (* 82 x8) ) 94))
(define-fun ie8 () Bool (<= (+ (* (- 24) x4) (* 53 x12) ) (- 59)))
(define-fun ie9 () Bool (<= (+ (* 57 x2) (* (- 71) x5) (* 40 x9) (* (- 71) x5) ) 70))
(define-fun ie10 () Bool (<= (+ (* (- 93) x6) (* (- 43) x7) (* (- 48) x4) ) 58))
(define-fun ie11 () Bool (<= (+ (* 85 x4) (* 66 x1) (* 15 x5) (* (- 88) x2) ) 39))
(define-fun ie12 () Bool (<= (+ (* (- 31) x5) (* 31 x4) (* 74 x7) (* 40 x6) ) 58))
(assert ie0)
(assert ie1)
(assert ie2)
(assert ie3)
(assert ie4)
(assert ie5)
(assert ie6)
(assert ie7)
(assert ie8)
(assert ie9)
(assert ie10)
(assert ie11)
(assert ie12)
(check-sat)
(exit)
